Read MPS format model from file dat/rmp/DER_24_16384_10.mps
Reading time = 0.30 seconds
: 16408 rows, 36936 columns, 830806 nonzeros
Gurobi Optimizer version 9.0.0 build v9.0.0rc2 (linux64)
Optimize a model with 16408 rows, 36936 columns and 830806 nonzeros
Model fingerprint: 0xd8426db2
Coefficient statistics:
  Matrix range     [3e-05, 1e+01]
  Objective range  [2e-01, 1e+03]
  Bounds range     [1e+05, 1e+05]
  RHS range        [1e+00, 1e+00]
Ordering time: 0.01s

Barrier statistics:
 AA' NZ     : 3.677e+05
 Factor NZ  : 5.187e+05 (roughly 26 MBytes of memory)
 Factor Ops : 1.803e+07 (less than 1 second per iteration)
 Threads    : 1

                  Objective                Residual
Iter       Primal          Dual         Primal    Dual     Compl     Time
   0   1.65305240e+09 -8.36359119e+07  4.69e+07 1.01e-02  1.09e+06     0s
   1   2.58234642e+07 -1.88279680e+07  6.87e+05 1.82e-12  1.64e+04     0s
   2   1.32699857e+06 -1.05400504e+07  3.38e+04 1.82e-12  1.06e+03     0s
   3   2.65105738e+04 -6.92275908e+06  1.88e+01 1.82e-12  1.89e+02     0s
   4   2.40656208e+04  2.29186994e+03  1.07e-02 1.82e-12  5.90e-01     0s
   5   2.38481615e+04  2.13518026e+04  4.67e-06 3.64e-12  6.76e-02     0s
   6   2.36555575e+04  2.28933073e+04  1.02e-06 1.82e-12  2.06e-02     0s
   7   2.36116764e+04  2.30567874e+04  6.89e-07 1.82e-12  1.50e-02     1s
   8   2.34650582e+04  2.33302245e+04  4.03e-08 3.64e-12  3.65e-03     1s
   9   2.34153445e+04  2.33936337e+04  1.03e-09 3.64e-12  5.88e-04     1s
  10   2.34099658e+04  2.33979133e+04  1.67e-09 1.82e-12  3.26e-04     1s
  11   2.34075522e+04  2.33998108e+04  1.73e-09 1.82e-12  2.10e-04     1s
  12   2.34060210e+04  2.34005713e+04  2.54e-09 1.82e-12  1.48e-04     1s
  13   2.34058766e+04  2.34009649e+04  2.36e-09 1.82e-12  1.33e-04     1s
  14   2.34056029e+04  2.34014497e+04  2.05e-09 1.82e-12  1.12e-04     1s
  15   2.34053867e+04  2.34019827e+04  1.53e-09 3.64e-12  9.21e-05     1s
  16   2.34048430e+04  2.34030431e+04  1.28e-09 1.82e-12  4.87e-05     1s
  17   2.34044677e+04  2.34032831e+04  2.78e-09 1.82e-12  3.21e-05     1s
  18   2.34041498e+04  2.34033869e+04  7.46e-09 1.82e-12  2.07e-05     1s
  19   2.34040823e+04  2.34034275e+04  6.98e-09 1.82e-12  1.77e-05     1s
  20   2.34039513e+04  2.34036536e+04  5.77e-09 1.82e-12  8.06e-06     1s
  21   2.34038889e+04  2.34037539e+04  2.53e-09 1.82e-12  3.65e-06     1s
  22   2.34038517e+04  2.34037650e+04  2.79e-08 1.82e-12  2.35e-06     1s
  23   2.34038170e+04  2.34037756e+04  1.14e-08 1.82e-12  1.12e-06     1s
  24   2.34038000e+04  2.34037823e+04  1.58e-08 3.64e-12  4.79e-07     1s
  25   2.34037856e+04  2.34037834e+04  2.10e-07 5.46e-12  5.95e-08     1s
  26   2.34037844e+04  2.34037844e+04  1.01e-07 1.82e-12  1.10e-09     1s

Barrier solved model in 26 iterations and 1.33 seconds
Optimal objective 2.34037844e+04

Solve time: 1.336373565
Barrier iterations: 26
